; Label array extracted from bank-full.csv
; Encoding: yes -> 1, no -> 0
(set-logic ALL)

(declare-const O (Array Int Int))
(define-fun m () Int 700)

(assert (= (select O 0) 0))
(assert (= (select O 1) 0))
(assert (= (select O 2) 0))
(assert (= (select O 3) 0))
(assert (= (select O 4) 0))
(assert (= (select O 5) 0))
(assert (= (select O 6) 0))
(assert (= (select O 7) 0))
(assert (= (select O 8) 0))
(assert (= (select O 9) 0))
(assert (= (select O 10) 0))
(assert (= (select O 11) 0))
(assert (= (select O 12) 0))
(assert (= (select O 13) 0))
(assert (= (select O 14) 0))
(assert (= (select O 15) 0))
(assert (= (select O 16) 0))
(assert (= (select O 17) 0))
(assert (= (select O 18) 0))
(assert (= (select O 19) 0))
(assert (= (select O 20) 0))
(assert (= (select O 21) 0))
(assert (= (select O 22) 0))
(assert (= (select O 23) 0))
(assert (= (select O 24) 0))
(assert (= (select O 25) 0))
(assert (= (select O 26) 0))
(assert (= (select O 27) 0))
(assert (= (select O 28) 0))
(assert (= (select O 29) 0))
(assert (= (select O 30) 0))
(assert (= (select O 31) 0))
(assert (= (select O 32) 0))
(assert (= (select O 33) 0))
(assert (= (select O 34) 0))
(assert (= (select O 35) 0))
(assert (= (select O 36) 0))
(assert (= (select O 37) 0))
(assert (= (select O 38) 0))
(assert (= (select O 39) 0))
(assert (= (select O 40) 0))
(assert (= (select O 41) 0))
(assert (= (select O 42) 0))
(assert (= (select O 43) 0))
(assert (= (select O 44) 0))
(assert (= (select O 45) 0))
(assert (= (select O 46) 0))
(assert (= (select O 47) 0))
(assert (= (select O 48) 0))
(assert (= (select O 49) 0))
(assert (= (select O 50) 0))
(assert (= (select O 51) 0))
(assert (= (select O 52) 0))
(assert (= (select O 53) 0))
(assert (= (select O 54) 0))
(assert (= (select O 55) 0))
(assert (= (select O 56) 0))
(assert (= (select O 57) 0))
(assert (= (select O 58) 0))
(assert (= (select O 59) 0))
(assert (= (select O 60) 0))
(assert (= (select O 61) 0))
(assert (= (select O 62) 0))
(assert (= (select O 63) 0))
(assert (= (select O 64) 0))
(assert (= (select O 65) 0))
(assert (= (select O 66) 0))
(assert (= (select O 67) 0))
(assert (= (select O 68) 0))
(assert (= (select O 69) 0))
(assert (= (select O 70) 0))
(assert (= (select O 71) 0))
(assert (= (select O 72) 0))
(assert (= (select O 73) 0))
(assert (= (select O 74) 0))
(assert (= (select O 75) 0))
(assert (= (select O 76) 0))
(assert (= (select O 77) 0))
(assert (= (select O 78) 0))
(assert (= (select O 79) 0))
(assert (= (select O 80) 0))
(assert (= (select O 81) 0))
(assert (= (select O 82) 0))
(assert (= (select O 83) 1))
(assert (= (select O 84) 0))
(assert (= (select O 85) 0))
(assert (= (select O 86) 1))
(assert (= (select O 87) 1))
(assert (= (select O 88) 0))
(assert (= (select O 89) 0))
(assert (= (select O 90) 0))
(assert (= (select O 91) 0))
(assert (= (select O 92) 0))
(assert (= (select O 93) 0))
(assert (= (select O 94) 0))
(assert (= (select O 95) 0))
(assert (= (select O 96) 0))
(assert (= (select O 97) 0))
(assert (= (select O 98) 0))
(assert (= (select O 99) 0))
(assert (= (select O 100) 0))
(assert (= (select O 101) 0))
(assert (= (select O 102) 0))
(assert (= (select O 103) 0))
(assert (= (select O 104) 0))
(assert (= (select O 105) 0))
(assert (= (select O 106) 0))
(assert (= (select O 107) 0))
(assert (= (select O 108) 0))
(assert (= (select O 109) 0))
(assert (= (select O 110) 0))
(assert (= (select O 111) 0))
(assert (= (select O 112) 0))
(assert (= (select O 113) 0))
(assert (= (select O 114) 0))
(assert (= (select O 115) 0))
(assert (= (select O 116) 0))
(assert (= (select O 117) 0))
(assert (= (select O 118) 0))
(assert (= (select O 119) 0))
(assert (= (select O 120) 0))
(assert (= (select O 121) 0))
(assert (= (select O 122) 0))
(assert (= (select O 123) 0))
(assert (= (select O 124) 0))
(assert (= (select O 125) 0))
(assert (= (select O 126) 0))
(assert (= (select O 127) 0))
(assert (= (select O 128) 0))
(assert (= (select O 129) 1))
(assert (= (select O 130) 0))
(assert (= (select O 131) 0))
(assert (= (select O 132) 0))
(assert (= (select O 133) 0))
(assert (= (select O 134) 0))
(assert (= (select O 135) 0))
(assert (= (select O 136) 0))
(assert (= (select O 137) 0))
(assert (= (select O 138) 0))
(assert (= (select O 139) 0))
(assert (= (select O 140) 0))
(assert (= (select O 141) 0))
(assert (= (select O 142) 0))
(assert (= (select O 143) 0))
(assert (= (select O 144) 0))
(assert (= (select O 145) 0))
(assert (= (select O 146) 0))
(assert (= (select O 147) 0))
(assert (= (select O 148) 0))
(assert (= (select O 149) 0))
(assert (= (select O 150) 0))
(assert (= (select O 151) 0))
(assert (= (select O 152) 0))
(assert (= (select O 153) 0))
(assert (= (select O 154) 0))
(assert (= (select O 155) 0))
(assert (= (select O 156) 0))
(assert (= (select O 157) 0))
(assert (= (select O 158) 0))
(assert (= (select O 159) 0))
(assert (= (select O 160) 0))
(assert (= (select O 161) 0))
(assert (= (select O 162) 0))
(assert (= (select O 163) 0))
(assert (= (select O 164) 0))
(assert (= (select O 165) 0))
(assert (= (select O 166) 0))
(assert (= (select O 167) 0))
(assert (= (select O 168) 1))
(assert (= (select O 169) 0))
(assert (= (select O 170) 0))
(assert (= (select O 171) 0))
(assert (= (select O 172) 0))
(assert (= (select O 173) 0))
(assert (= (select O 174) 0))
(assert (= (select O 175) 0))
(assert (= (select O 176) 0))
(assert (= (select O 177) 0))
(assert (= (select O 178) 0))
(assert (= (select O 179) 0))
(assert (= (select O 180) 0))
(assert (= (select O 181) 0))
(assert (= (select O 182) 0))
(assert (= (select O 183) 0))
(assert (= (select O 184) 0))
(assert (= (select O 185) 0))
(assert (= (select O 186) 0))
(assert (= (select O 187) 0))
(assert (= (select O 188) 0))
(assert (= (select O 189) 0))
(assert (= (select O 190) 0))
(assert (= (select O 191) 0))
(assert (= (select O 192) 0))
(assert (= (select O 193) 0))
(assert (= (select O 194) 0))
(assert (= (select O 195) 0))
(assert (= (select O 196) 0))
(assert (= (select O 197) 0))
(assert (= (select O 198) 0))
(assert (= (select O 199) 0))
(assert (= (select O 200) 0))
(assert (= (select O 201) 0))
(assert (= (select O 202) 0))
(assert (= (select O 203) 0))
(assert (= (select O 204) 0))
(assert (= (select O 205) 0))
(assert (= (select O 206) 0))
(assert (= (select O 207) 0))
(assert (= (select O 208) 0))
(assert (= (select O 209) 0))
(assert (= (select O 210) 0))
(assert (= (select O 211) 0))
(assert (= (select O 212) 0))
(assert (= (select O 213) 0))
(assert (= (select O 214) 0))
(assert (= (select O 215) 0))
(assert (= (select O 216) 0))
(assert (= (select O 217) 0))
(assert (= (select O 218) 0))
(assert (= (select O 219) 0))
(assert (= (select O 220) 0))
(assert (= (select O 221) 0))
(assert (= (select O 222) 0))
(assert (= (select O 223) 0))
(assert (= (select O 224) 0))
(assert (= (select O 225) 0))
(assert (= (select O 226) 0))
(assert (= (select O 227) 0))
(assert (= (select O 228) 0))
(assert (= (select O 229) 0))
(assert (= (select O 230) 0))
(assert (= (select O 231) 0))
(assert (= (select O 232) 0))
(assert (= (select O 233) 0))
(assert (= (select O 234) 0))
(assert (= (select O 235) 0))
(assert (= (select O 236) 0))
(assert (= (select O 237) 0))
(assert (= (select O 238) 0))
(assert (= (select O 239) 0))
(assert (= (select O 240) 0))
(assert (= (select O 241) 0))
(assert (= (select O 242) 0))
(assert (= (select O 243) 0))
(assert (= (select O 244) 0))
(assert (= (select O 245) 0))
(assert (= (select O 246) 0))
(assert (= (select O 247) 0))
(assert (= (select O 248) 0))
(assert (= (select O 249) 0))
(assert (= (select O 250) 0))
(assert (= (select O 251) 0))
(assert (= (select O 252) 0))
(assert (= (select O 253) 0))
(assert (= (select O 254) 0))
(assert (= (select O 255) 0))
(assert (= (select O 256) 0))
(assert (= (select O 257) 0))
(assert (= (select O 258) 0))
(assert (= (select O 259) 0))
(assert (= (select O 260) 0))
(assert (= (select O 261) 0))
(assert (= (select O 262) 0))
(assert (= (select O 263) 0))
(assert (= (select O 264) 0))
(assert (= (select O 265) 0))
(assert (= (select O 266) 0))
(assert (= (select O 267) 0))
(assert (= (select O 268) 0))
(assert (= (select O 269) 0))
(assert (= (select O 270) 1))
(assert (= (select O 271) 0))
(assert (= (select O 272) 0))
(assert (= (select O 273) 0))
(assert (= (select O 274) 0))
(assert (= (select O 275) 0))
(assert (= (select O 276) 0))
(assert (= (select O 277) 0))
(assert (= (select O 278) 0))
(assert (= (select O 279) 0))
(assert (= (select O 280) 0))
(assert (= (select O 281) 0))
(assert (= (select O 282) 0))
(assert (= (select O 283) 0))
(assert (= (select O 284) 0))
(assert (= (select O 285) 0))
(assert (= (select O 286) 0))
(assert (= (select O 287) 0))
(assert (= (select O 288) 0))
(assert (= (select O 289) 0))
(assert (= (select O 290) 0))
(assert (= (select O 291) 0))
(assert (= (select O 292) 0))
(assert (= (select O 293) 0))
(assert (= (select O 294) 0))
(assert (= (select O 295) 0))
(assert (= (select O 296) 0))
(assert (= (select O 297) 0))
(assert (= (select O 298) 0))
(assert (= (select O 299) 0))
(assert (= (select O 300) 0))
(assert (= (select O 301) 0))
(assert (= (select O 302) 0))
(assert (= (select O 303) 0))
(assert (= (select O 304) 0))
(assert (= (select O 305) 0))
(assert (= (select O 306) 0))
(assert (= (select O 307) 0))
(assert (= (select O 308) 0))
(assert (= (select O 309) 0))
(assert (= (select O 310) 0))
(assert (= (select O 311) 0))
(assert (= (select O 312) 0))
(assert (= (select O 313) 0))
(assert (= (select O 314) 0))
(assert (= (select O 315) 0))
(assert (= (select O 316) 0))
(assert (= (select O 317) 0))
(assert (= (select O 318) 0))
(assert (= (select O 319) 0))
(assert (= (select O 320) 0))
(assert (= (select O 321) 0))
(assert (= (select O 322) 0))
(assert (= (select O 323) 0))
(assert (= (select O 324) 0))
(assert (= (select O 325) 0))
(assert (= (select O 326) 0))
(assert (= (select O 327) 0))
(assert (= (select O 328) 0))
(assert (= (select O 329) 0))
(assert (= (select O 330) 0))
(assert (= (select O 331) 0))
(assert (= (select O 332) 0))
(assert (= (select O 333) 0))
(assert (= (select O 334) 0))
(assert (= (select O 335) 0))
(assert (= (select O 336) 0))
(assert (= (select O 337) 0))
(assert (= (select O 338) 0))
(assert (= (select O 339) 0))
(assert (= (select O 340) 0))
(assert (= (select O 341) 0))
(assert (= (select O 342) 0))
(assert (= (select O 343) 0))
(assert (= (select O 344) 0))
(assert (= (select O 345) 0))
(assert (= (select O 346) 0))
(assert (= (select O 347) 0))
(assert (= (select O 348) 0))
(assert (= (select O 349) 0))
(assert (= (select O 350) 0))
(assert (= (select O 351) 0))
(assert (= (select O 352) 0))
(assert (= (select O 353) 0))
(assert (= (select O 354) 0))
(assert (= (select O 355) 0))
(assert (= (select O 356) 0))
(assert (= (select O 357) 0))
(assert (= (select O 358) 0))
(assert (= (select O 359) 0))
(assert (= (select O 360) 0))
(assert (= (select O 361) 0))
(assert (= (select O 362) 0))
(assert (= (select O 363) 0))
(assert (= (select O 364) 0))
(assert (= (select O 365) 0))
(assert (= (select O 366) 0))
(assert (= (select O 367) 0))
(assert (= (select O 368) 0))
(assert (= (select O 369) 0))
(assert (= (select O 370) 0))
(assert (= (select O 371) 0))
(assert (= (select O 372) 0))
(assert (= (select O 373) 0))
(assert (= (select O 374) 0))
(assert (= (select O 375) 0))
(assert (= (select O 376) 0))
(assert (= (select O 377) 0))
(assert (= (select O 378) 0))
(assert (= (select O 379) 0))
(assert (= (select O 380) 0))
(assert (= (select O 381) 0))
(assert (= (select O 382) 0))
(assert (= (select O 383) 0))
(assert (= (select O 384) 0))
(assert (= (select O 385) 0))
(assert (= (select O 386) 0))
(assert (= (select O 387) 0))
(assert (= (select O 388) 1))
(assert (= (select O 389) 0))
(assert (= (select O 390) 1))
(assert (= (select O 391) 0))
(assert (= (select O 392) 0))
(assert (= (select O 393) 0))
(assert (= (select O 394) 0))
(assert (= (select O 395) 0))
(assert (= (select O 396) 0))
(assert (= (select O 397) 0))
(assert (= (select O 398) 0))
(assert (= (select O 399) 0))
(assert (= (select O 400) 0))
(assert (= (select O 401) 0))
(assert (= (select O 402) 0))
(assert (= (select O 403) 0))
(assert (= (select O 404) 0))
(assert (= (select O 405) 0))
(assert (= (select O 406) 0))
(assert (= (select O 407) 0))
(assert (= (select O 408) 0))
(assert (= (select O 409) 0))
(assert (= (select O 410) 0))
(assert (= (select O 411) 0))
(assert (= (select O 412) 0))
(assert (= (select O 413) 0))
(assert (= (select O 414) 0))
(assert (= (select O 415) 0))
(assert (= (select O 416) 0))
(assert (= (select O 417) 0))
(assert (= (select O 418) 0))
(assert (= (select O 419) 0))
(assert (= (select O 420) 0))
(assert (= (select O 421) 0))
(assert (= (select O 422) 0))
(assert (= (select O 423) 0))
(assert (= (select O 424) 0))
(assert (= (select O 425) 0))
(assert (= (select O 426) 0))
(assert (= (select O 427) 0))
(assert (= (select O 428) 0))
(assert (= (select O 429) 0))
(assert (= (select O 430) 0))
(assert (= (select O 431) 0))
(assert (= (select O 432) 0))
(assert (= (select O 433) 0))
(assert (= (select O 434) 0))
(assert (= (select O 435) 0))
(assert (= (select O 436) 0))
(assert (= (select O 437) 0))
(assert (= (select O 438) 0))
(assert (= (select O 439) 0))
(assert (= (select O 440) 0))
(assert (= (select O 441) 0))
(assert (= (select O 442) 0))
(assert (= (select O 443) 0))
(assert (= (select O 444) 0))
(assert (= (select O 445) 0))
(assert (= (select O 446) 1))
(assert (= (select O 447) 0))
(assert (= (select O 448) 0))
(assert (= (select O 449) 0))
(assert (= (select O 450) 0))
(assert (= (select O 451) 0))
(assert (= (select O 452) 0))
(assert (= (select O 453) 0))
(assert (= (select O 454) 0))
(assert (= (select O 455) 0))
(assert (= (select O 456) 0))
(assert (= (select O 457) 1))
(assert (= (select O 458) 0))
(assert (= (select O 459) 0))
(assert (= (select O 460) 0))
(assert (= (select O 461) 0))
(assert (= (select O 462) 0))
(assert (= (select O 463) 0))
(assert (= (select O 464) 0))
(assert (= (select O 465) 0))
(assert (= (select O 466) 0))
(assert (= (select O 467) 0))
(assert (= (select O 468) 0))
(assert (= (select O 469) 0))
(assert (= (select O 470) 0))
(assert (= (select O 471) 0))
(assert (= (select O 472) 0))
(assert (= (select O 473) 0))
(assert (= (select O 474) 1))
(assert (= (select O 475) 0))
(assert (= (select O 476) 0))
(assert (= (select O 477) 0))
(assert (= (select O 478) 0))
(assert (= (select O 479) 0))
(assert (= (select O 480) 0))
(assert (= (select O 481) 0))
(assert (= (select O 482) 0))
(assert (= (select O 483) 0))
(assert (= (select O 484) 0))
(assert (= (select O 485) 0))
(assert (= (select O 486) 0))
(assert (= (select O 487) 0))
(assert (= (select O 488) 0))
(assert (= (select O 489) 0))
(assert (= (select O 490) 0))
(assert (= (select O 491) 0))
(assert (= (select O 492) 0))
(assert (= (select O 493) 0))
(assert (= (select O 494) 0))
(assert (= (select O 495) 0))
(assert (= (select O 496) 0))
(assert (= (select O 497) 0))
(assert (= (select O 498) 0))
(assert (= (select O 499) 0))
(assert (= (select O 500) 0))
(assert (= (select O 501) 0))
(assert (= (select O 502) 0))
(assert (= (select O 503) 0))
(assert (= (select O 504) 0))
(assert (= (select O 505) 0))
(assert (= (select O 506) 0))
(assert (= (select O 507) 0))
(assert (= (select O 508) 0))
(assert (= (select O 509) 0))
(assert (= (select O 510) 0))
(assert (= (select O 511) 0))
(assert (= (select O 512) 1))
(assert (= (select O 513) 0))
(assert (= (select O 514) 0))
(assert (= (select O 515) 0))
(assert (= (select O 516) 0))
(assert (= (select O 517) 0))
(assert (= (select O 518) 0))
(assert (= (select O 519) 0))
(assert (= (select O 520) 0))
(assert (= (select O 521) 0))
(assert (= (select O 522) 0))
(assert (= (select O 523) 0))
(assert (= (select O 524) 0))
(assert (= (select O 525) 0))
(assert (= (select O 526) 0))
(assert (= (select O 527) 0))
(assert (= (select O 528) 0))
(assert (= (select O 529) 0))
(assert (= (select O 530) 0))
(assert (= (select O 531) 0))
(assert (= (select O 532) 0))
(assert (= (select O 533) 0))
(assert (= (select O 534) 0))
(assert (= (select O 535) 0))
(assert (= (select O 536) 0))
(assert (= (select O 537) 0))
(assert (= (select O 538) 0))
(assert (= (select O 539) 0))
(assert (= (select O 540) 0))
(assert (= (select O 541) 0))
(assert (= (select O 542) 0))
(assert (= (select O 543) 0))
(assert (= (select O 544) 0))
(assert (= (select O 545) 0))
(assert (= (select O 546) 0))
(assert (= (select O 547) 0))
(assert (= (select O 548) 0))
(assert (= (select O 549) 0))
(assert (= (select O 550) 0))
(assert (= (select O 551) 0))
(assert (= (select O 552) 0))
(assert (= (select O 553) 0))
(assert (= (select O 554) 0))
(assert (= (select O 555) 0))
(assert (= (select O 556) 0))
(assert (= (select O 557) 0))
(assert (= (select O 558) 0))
(assert (= (select O 559) 0))
(assert (= (select O 560) 0))
(assert (= (select O 561) 0))
(assert (= (select O 562) 0))
(assert (= (select O 563) 0))
(assert (= (select O 564) 0))
(assert (= (select O 565) 0))
(assert (= (select O 566) 0))
(assert (= (select O 567) 0))
(assert (= (select O 568) 0))
(assert (= (select O 569) 1))
(assert (= (select O 570) 0))
(assert (= (select O 571) 0))
(assert (= (select O 572) 0))
(assert (= (select O 573) 0))
(assert (= (select O 574) 0))
(assert (= (select O 575) 0))
(assert (= (select O 576) 0))
(assert (= (select O 577) 0))
(assert (= (select O 578) 0))
(assert (= (select O 579) 0))
(assert (= (select O 580) 0))
(assert (= (select O 581) 0))
(assert (= (select O 582) 0))
(assert (= (select O 583) 0))
(assert (= (select O 584) 0))
(assert (= (select O 585) 0))
(assert (= (select O 586) 0))
(assert (= (select O 587) 0))
(assert (= (select O 588) 0))
(assert (= (select O 589) 0))
(assert (= (select O 590) 0))
(assert (= (select O 591) 0))
(assert (= (select O 592) 0))
(assert (= (select O 593) 0))
(assert (= (select O 594) 0))
(assert (= (select O 595) 0))
(assert (= (select O 596) 0))
(assert (= (select O 597) 0))
(assert (= (select O 598) 0))
(assert (= (select O 599) 0))
(assert (= (select O 600) 0))
(assert (= (select O 601) 0))
(assert (= (select O 602) 0))
(assert (= (select O 603) 0))
(assert (= (select O 604) 0))
(assert (= (select O 605) 0))
(assert (= (select O 606) 0))
(assert (= (select O 607) 0))
(assert (= (select O 608) 0))
(assert (= (select O 609) 0))
(assert (= (select O 610) 0))
(assert (= (select O 611) 0))
(assert (= (select O 612) 0))
(assert (= (select O 613) 0))
(assert (= (select O 614) 0))
(assert (= (select O 615) 0))
(assert (= (select O 616) 0))
(assert (= (select O 617) 0))
(assert (= (select O 618) 0))
(assert (= (select O 619) 0))
(assert (= (select O 620) 0))
(assert (= (select O 621) 0))
(assert (= (select O 622) 0))
(assert (= (select O 623) 0))
(assert (= (select O 624) 1))
(assert (= (select O 625) 0))
(assert (= (select O 626) 0))
(assert (= (select O 627) 0))
(assert (= (select O 628) 0))
(assert (= (select O 629) 0))
(assert (= (select O 630) 0))
(assert (= (select O 631) 0))
(assert (= (select O 632) 0))
(assert (= (select O 633) 0))
(assert (= (select O 634) 0))
(assert (= (select O 635) 0))
(assert (= (select O 636) 0))
(assert (= (select O 637) 0))
(assert (= (select O 638) 0))
(assert (= (select O 639) 0))
(assert (= (select O 640) 0))
(assert (= (select O 641) 0))
(assert (= (select O 642) 0))
(assert (= (select O 643) 0))
(assert (= (select O 644) 0))
(assert (= (select O 645) 0))
(assert (= (select O 646) 0))
(assert (= (select O 647) 0))
(assert (= (select O 648) 0))
(assert (= (select O 649) 0))
(assert (= (select O 650) 0))
(assert (= (select O 651) 0))
(assert (= (select O 652) 0))
(assert (= (select O 653) 0))
(assert (= (select O 654) 0))
(assert (= (select O 655) 0))
(assert (= (select O 656) 0))
(assert (= (select O 657) 0))
(assert (= (select O 658) 0))
(assert (= (select O 659) 0))
(assert (= (select O 660) 0))
(assert (= (select O 661) 0))
(assert (= (select O 662) 0))
(assert (= (select O 663) 0))
(assert (= (select O 664) 0))
(assert (= (select O 665) 0))
(assert (= (select O 666) 0))
(assert (= (select O 667) 0))
(assert (= (select O 668) 0))
(assert (= (select O 669) 0))
(assert (= (select O 670) 0))
(assert (= (select O 671) 0))
(assert (= (select O 672) 0))
(assert (= (select O 673) 0))
(assert (= (select O 674) 0))
(assert (= (select O 675) 0))
(assert (= (select O 676) 0))
(assert (= (select O 677) 0))
(assert (= (select O 678) 0))
(assert (= (select O 679) 0))
(assert (= (select O 680) 0))
(assert (= (select O 681) 0))
(assert (= (select O 682) 0))
(assert (= (select O 683) 0))
(assert (= (select O 684) 0))
(assert (= (select O 685) 0))
(assert (= (select O 686) 0))
(assert (= (select O 687) 0))
(assert (= (select O 688) 0))
(assert (= (select O 689) 0))
(assert (= (select O 690) 0))
(assert (= (select O 691) 0))
(assert (= (select O 692) 0))
(assert (= (select O 693) 0))
(assert (= (select O 694) 1))
(assert (= (select O 695) 0))
(assert (= (select O 696) 0))
(assert (= (select O 697) 0))
(assert (= (select O 698) 0))
(assert (= (select O 699) 0))

; label set: {0, 1}
(declare-const L (Array Int Int))
(define-fun l () Int 2)

(assert (= (select L 0) 0))
(assert (= (select L 1) 1))

(define-fun-rec sum-if-value ((A (Array Int Int)) (item Int) (size Int)) Int
  (ite (< size 0)
       0
       (ite (= (select A size) item)
            (+ 1 (sum-if-value A item (- size 1)))
            (sum-if-value A item (- size 1))
       )
  )
)

; imbalance tolerance parameter
(define-fun B () Int 2)

(assert
  (not
    (exists ((i Int))
      (and
        (>= i 0)
        (< i l)
        (< (sum-if-value O (select L i) (- m 1))
           (/ m (* l B)))
      )
    )
  )
)

(check-sat)